% Data file generated from 22_0.35_1.col DIMACS file
size = 22;

chi = 5;

adjacency = [|0,0,0,0,1,1,0,1,0,1,1,0,0,0,0,0,0,0,0,0,0,0,
|0,0,1,0,0,0,0,1,0,1,1,0,0,0,0,0,1,0,0,0,1,0,
|0,1,0,1,0,0,1,0,1,1,0,0,1,1,0,0,0,0,1,0,0,1,
|0,0,1,0,0,0,1,1,0,1,0,1,1,0,0,0,1,1,0,1,0,1,
|1,0,0,0,0,0,0,0,0,0,1,0,0,0,1,0,0,1,0,0,0,0,
|1,0,0,0,0,0,0,0,1,1,0,1,0,1,0,1,0,0,1,1,1,0,
|0,0,1,1,0,0,0,0,0,1,1,1,0,0,0,0,1,1,1,0,1,0,
|1,1,0,1,0,0,0,0,1,1,1,0,0,0,0,0,0,0,0,0,0,1,
|0,0,1,0,0,1,0,1,0,0,0,0,1,1,1,0,1,0,1,1,1,0,
|1,1,1,1,0,1,1,1,0,0,0,0,0,1,0,0,0,0,0,1,0,0,
|1,1,0,0,1,0,1,1,0,0,0,0,1,1,0,0,0,0,0,0,0,0,
|0,0,0,1,0,1,1,0,0,0,0,0,0,0,1,1,1,0,0,1,1,0,
|0,0,1,1,0,0,0,0,1,0,1,0,0,0,0,0,1,0,1,0,0,1,
|0,0,1,0,0,1,0,0,1,1,1,0,0,0,1,0,0,0,0,0,0,1,
|0,0,0,0,1,0,0,0,1,0,0,1,0,1,0,0,1,1,0,1,1,0,
|0,0,0,0,0,1,0,0,0,0,0,1,0,0,0,0,0,0,1,1,0,0,
|0,1,0,1,0,0,1,0,1,0,0,1,1,0,1,0,0,1,0,0,0,1,
|0,0,0,1,1,0,1,0,0,0,0,0,0,0,1,0,1,0,1,0,0,0,
|0,0,1,0,0,1,1,0,1,0,0,0,1,0,0,1,0,1,0,0,0,0,
|0,0,0,1,0,1,0,0,1,1,0,1,0,0,1,1,0,0,0,0,1,1,
|0,1,0,0,0,1,1,0,1,0,0,1,0,0,1,0,0,0,0,1,0,0,
|0,0,1,1,0,0,0,1,0,0,0,0,1,1,0,0,1,0,0,1,0,0,
|];